MIN
OBJ:  +1.0000000000000000 th0_0 +100.0000000000000000 th0_1 +100.0000000000000000 th0_2 +100.0000000000000000 th0_3 

SUBJECT TO
SF00000001:  -1.0000000000000000 th0_0 -98.8424154917216669 th0_1 -107.4804920181730807 th0_2 -157.2873806110932833 th0_3  +1.0000000000000000 th1_0 +98.8424154917216669 th1_1 +107.4804920181730807 th1_2 +157.2873806110932833 th1_3 =  -8.6380765264514139
SF00000002:  -1.0000000000000000 th0_0 -90.5982600564642837 th0_1 -106.9251491433649761 th0_2 -94.1686998168608653 th0_3  +1.0000000000000000 th2_0 +90.5982600564642837 th2_1 +106.9251491433649761 th2_2 +94.1686998168608653 th2_3 = -16.3268890869006924
SF00000003:  -1.0000000000000000 th0_0 -98.9581328762046866 th0_1 -96.3513813277033080 th0_2 -119.4528035477546410 th0_3  +1.0000000000000000 th3_0 +98.9581328762046866 th3_1 +96.3513813277033080 th3_2 +119.4528035477546410 th3_3 =  -0.0000000000000000
SF00000004:  -1.0000000000000000 th0_0 -96.1626100134622561 th0_1 -99.3349555342194606 th0_2 -98.1332815589268677 th0_3  +1.0000000000000000 th4_0 +96.1626100134622561 th4_1 +99.3349555342194606 th4_2 +98.1332815589268677 th4_3 =  -3.1723455207572044
SF00000005:  -1.0000000000000000 th0_0 -93.8360281717483389 th0_1 -97.9228834761319433 th0_2 -90.9627902675060369 th0_3  +1.0000000000000000 th5_0 +93.8360281717483389 th5_1 +97.9228834761319433 th5_2 +90.9627902675060369 th5_3 =  -4.0868553043836044

NN00000001:  +1.0000000000000000 th1_0 +98.8424154917216669 th1_1 +107.4804920181730807 th1_2 +157.2873806110932833 th1_3 >= 0
NN00000002:  +1.0000000000000000 th2_0 +90.5982600564642837 th2_1 +106.9251491433649761 th2_2 +94.1686998168608653 th2_3 >= 0
NN00000003:  +1.0000000000000000 th3_0 +98.9581328762046866 th3_1 +96.3513813277033080 th3_2 +119.4528035477546410 th3_3 >= 0
NN00000004:  +1.0000000000000000 th4_0 +96.1626100134622561 th4_1 +99.3349555342194606 th4_2 +98.1332815589268677 th4_3 >= 0
NN00000005:  +1.0000000000000000 th5_0 +93.8360281717483389 th5_1 +97.9228834761319433 th5_2 +90.9627902675060369 th5_3 >= 0

BOUNDS
th0_0 free
th0_1 free
th0_2 free
th0_3 free
th1_0 free
th1_1 free
th1_2 free
th1_3 free
th2_0 free
th2_1 free
th2_2 free
th2_3 free
th3_0 free
th3_1 free
th3_2 free
th3_3 free
th4_0 free
th4_1 free
th4_2 free
th4_3 free
th5_0 free
th5_1 free
th5_2 free
th5_3 free

END
